\Problem name: 

Minimize
OBJROW: -2 X.1 -10 X.2 -8 X.3 -7 X.4 -10 X.5 -10 X.6 -6 X.7
Subject To
constr(0):  5 X.1 + 7 X.2 + 8 X.3 + X.4 + 7 X.5 + 5 X.6 + 6 X.7 <= 20
constr(1):  X.1 + 6 X.2 + 4 X.3 + 9 X.4 + 10 X.5 + 6 X.6 + 10 X.7 <= 30
constr(2):  4 X.1 + 4 X.2 + 4 X.3 + X.4 + 5 X.5 + 5 X.6 + 10 X.7 <= 40
constr(3):  3 X.1 + 10 X.2 + 8 X.3 + X.4 + 3 X.5 + 3 X.6 + 8 X.7 <= 30
constr(4):  10 X.1 + 8 X.2 + 9 X.3 + 9 X.4 + 7 X.5 + 6 X.6 + 10 X.7 <= 20
constr(5):  6 X.1 + 6 X.2 + 3 X.3 + 6 X.4 + 3 X.5 + 7 X.6 + 2 X.7 <= 80
constr(6):  7 X.1 + 10 X.2 + 7 X.3 + 8 X.4 + 7 X.5 + 8 X.6 + 7 X.7 <= 100
constr(7):  9 X.1 + 8 X.2 + X.3 + X.4 + 8 X.5 + 10 X.6 + 2 X.7 <= 90
constr(8):  X.1 + 5 X.2 + 3 X.3 + 10 X.4 + 2 X.5 + 4 X.6 + 9 X.7 <= 70
constr(9):  9 X.1 + 6 X.2 + X.3 + 4 X.4 + 7 X.5 + 5 X.6 + 10 X.7 <= 60
constr(10):  5 X.1 + 7 X.2 + 4 X.3 + 4 X.4 + 3 X.5 + 4 X.6 + 10 X.7 <= 40
Bounds
 0 <= X.1 <= 1
 0 <= X.2 <= 1
 0 <= X.3 <= 1
 0 <= X.4 <= 1
 0 <= X.5 <= 1
 0 <= X.6 <= 1
 0 <= X.7 <= 1
End
